; SWAP1 DUP1 MLOAD PUSH cw_1 SWAP3 SWAP2 => DUP2 MLOAD PUSH cw_1 SWAP3
(set-option :produce-proofs true)
; 
(set-info :status unknown)
(declare-fun storage_t ((_ BitVec 256) (_ BitVec 256) (_ BitVec 256) (_ BitVec 256) Int (_ BitVec 256)) (_ BitVec 256))
(declare-fun w_1 () (_ BitVec 256))
(declare-fun storage_s ((_ BitVec 256) (_ BitVec 256) (_ BitVec 256) (_ BitVec 256) Int (_ BitVec 256)) (_ BitVec 256))
(declare-fun exc_halt_t (Int) Bool)
(declare-fun exc_halt_s (Int) Bool)
(declare-fun stack_t ((_ BitVec 256) (_ BitVec 256) (_ BitVec 256) (_ BitVec 256) Int (_ BitVec 6)) (_ BitVec 256))
(declare-fun stack_s ((_ BitVec 256) (_ BitVec 256) (_ BitVec 256) (_ BitVec 256) Int (_ BitVec 6)) (_ BitVec 256))
(declare-fun sc_t (Int) (_ BitVec 6))
(declare-fun sc_s (Int) (_ BitVec 6))
(declare-fun used_gas_t ((_ BitVec 256) (_ BitVec 256) (_ BitVec 256) (_ BitVec 256) Int) Int)
(declare-fun used_gas_s ((_ BitVec 256) (_ BitVec 256) (_ BitVec 256) (_ BitVec 256) Int) Int)
(declare-fun f_MLOAD ((_ BitVec 256) (_ BitVec 256) (_ BitVec 256) (_ BitVec 256) (_ BitVec 256)) (_ BitVec 256))
(assert
 (exists ((x_0 (_ BitVec 256)) (x_1 (_ BitVec 256)) (x_MLOAD_0 (_ BitVec 256)) )(let (($x11773 (forall ((w (_ BitVec 256)) )(let ((?x965 (storage_t x_0 x_1 w_1 x_MLOAD_0 4 w)))
 (let ((?x4496 (storage_s x_0 x_1 w_1 x_MLOAD_0 6 w)))
 (= ?x4496 ?x965))))
 ))
 (let (($x7854 (exc_halt_t 4)))
 (let (($x772 (exc_halt_s 6)))
 (let (($x4404 (= $x772 $x7854)))
 (let (($x7455 (forall ((n (_ BitVec 6)) )(let ((?x574 (stack_t x_0 x_1 w_1 x_MLOAD_0 4 n)))
 (let ((?x9655 (stack_s x_0 x_1 w_1 x_MLOAD_0 6 n)))
 (let (($x7837 (= ?x9655 ?x574)))
 (or (bvsle (sc_t 4) n) $x7837)))))
 ))
 (let ((?x4818 (sc_t 4)))
 (let ((?x926 (sc_s 6)))
 (let (($x7899 (= ?x926 ?x4818)))
 (let ((?x5573 (used_gas_t x_0 x_1 w_1 x_MLOAD_0 0)))
 (let ((?x8835 (used_gas_s x_0 x_1 w_1 x_MLOAD_0 0)))
 (let (($x7621 (= ?x8835 ?x5573)))
 (let (($x6709 (forall ((w (_ BitVec 256)) )(let ((?x2174 (storage_t x_0 x_1 w_1 x_MLOAD_0 0 w)))
 (let ((?x9305 (storage_s x_0 x_1 w_1 x_MLOAD_0 0 w)))
 (= ?x9305 ?x2174))))
 ))
 (let (($x56 (exc_halt_t 0)))
 (let (($x57 (exc_halt_s 0)))
 (let (($x58 (= $x57 $x56)))
 (let (($x1309 (forall ((n (_ BitVec 6)) )(let ((?x4845 (stack_t x_0 x_1 w_1 x_MLOAD_0 0 n)))
 (let ((?x10539 (stack_s x_0 x_1 w_1 x_MLOAD_0 0 n)))
 (let (($x7906 (= ?x10539 ?x4845)))
 (let ((?x63 (sc_t 0)))
 (let (($x3635 (bvsle ?x63 n)))
 (or $x3635 $x7906)))))))
 ))
 (let ((?x63 (sc_t 0)))
 (let ((?x72 (sc_s 0)))
 (let (($x73 (= ?x72 ?x63)))
 (let (($x884 (= $x7854 (or (exc_halt_t 3) (not (bvsle (_ bv0 6) (bvadd (_ bv60 6) (sc_t 3))))))))
 (let (($x4432 (forall ((w (_ BitVec 256)) )(let ((?x1334 (storage_t x_0 x_1 w_1 x_MLOAD_0 3 w)))
 (let ((?x965 (storage_t x_0 x_1 w_1 x_MLOAD_0 4 w)))
 (= ?x965 ?x1334))))
 ))
 (let (($x8967 (forall ((n (_ BitVec 6)) )(let ((?x7926 (stack_t x_0 x_1 w_1 x_MLOAD_0 3 n)))
 (let ((?x574 (stack_t x_0 x_1 w_1 x_MLOAD_0 4 n)))
 (or (= ?x574 ?x7926) (bvsle (bvadd (_ bv60 6) (sc_t 3)) n)))))
 ))
 (let ((?x11304 (sc_t 3)))
 (let (($x8262 (= ?x4818 ?x11304)))
 (let (($x9744 (= (used_gas_t x_0 x_1 w_1 x_MLOAD_0 4) (+ 3 (used_gas_t x_0 x_1 w_1 x_MLOAD_0 3)))))
 (let (($x10209 (= (stack_t x_0 x_1 w_1 x_MLOAD_0 4 (bvadd (_ bv62 6) ?x4818)) (stack_t x_0 x_1 w_1 x_MLOAD_0 3 (bvadd (_ bv62 6) ?x11304)))))
 (let (($x2383 (= (stack_t x_0 x_1 w_1 x_MLOAD_0 4 (bvadd (_ bv61 6) ?x4818)) (stack_t x_0 x_1 w_1 x_MLOAD_0 3 (bvadd (_ bv61 6) ?x11304)))))
 (let (($x6606 (= (stack_t x_0 x_1 w_1 x_MLOAD_0 4 (bvadd (_ bv60 6) ?x4818)) (stack_t x_0 x_1 w_1 x_MLOAD_0 3 (bvadd (_ bv63 6) ?x11304)))))
 (let (($x9087 (= (stack_t x_0 x_1 w_1 x_MLOAD_0 4 (bvadd (_ bv63 6) ?x4818)) (stack_t x_0 x_1 w_1 x_MLOAD_0 3 (bvadd (_ bv60 6) ?x11304)))))
 (let (($x3986 (exc_halt_t 2)))
 (let (($x6726 (or $x3986 (not (= ((_ extract 6 6) (bvadd (_ bv1 7) (concat (_ bv0 1) (sc_t 2)))) (_ bv0 1))))))
 (let (($x3614 (exc_halt_t 3)))
 (let (($x7568 (forall ((w (_ BitVec 256)) )(let ((?x8489 (storage_t x_0 x_1 w_1 x_MLOAD_0 2 w)))
 (let ((?x1334 (storage_t x_0 x_1 w_1 x_MLOAD_0 3 w)))
 (= ?x1334 ?x8489))))
 ))
 (let (($x2182 (forall ((n (_ BitVec 6)) )(let ((?x3422 (stack_t x_0 x_1 w_1 x_MLOAD_0 2 n)))
 (let ((?x7926 (stack_t x_0 x_1 w_1 x_MLOAD_0 3 n)))
 (or (= ?x7926 ?x3422) (bvsle (sc_t 2) n)))))
 ))
 (let ((?x9958 (used_gas_t x_0 x_1 w_1 x_MLOAD_0 3)))
 (let (($x11191 (= $x3986 (or (exc_halt_t 1) (not (bvsle (_ bv0 6) (bvadd (_ bv63 6) (sc_t 1))))))))
 (let (($x5901 (forall ((w (_ BitVec 256)) )(let ((?x5911 (storage_t x_0 x_1 w_1 x_MLOAD_0 1 w)))
 (let ((?x8489 (storage_t x_0 x_1 w_1 x_MLOAD_0 2 w)))
 (= ?x8489 ?x5911))))
 ))
 (let (($x9783 (forall ((n (_ BitVec 6)) )(let ((?x7154 (sc_t 1)))
 (let ((?x7806 (bvadd (_ bv63 6) ?x7154)))
 (let (($x7722 (bvsle ?x7806 n)))
 (let ((?x10661 (stack_t x_0 x_1 w_1 x_MLOAD_0 1 n)))
 (let ((?x3422 (stack_t x_0 x_1 w_1 x_MLOAD_0 2 n)))
 (or (= ?x3422 ?x10661) $x7722)))))))
 ))
 (let ((?x8038 (used_gas_t x_0 x_1 w_1 x_MLOAD_0 2)))
 (let ((?x7154 (sc_t 1)))
 (let ((?x7806 (bvadd (_ bv63 6) ?x7154)))
 (let ((?x11500 (stack_t x_0 x_1 w_1 x_MLOAD_0 1 ?x7806)))
 (let (($x11667 (= (stack_t x_0 x_1 w_1 x_MLOAD_0 2 (bvadd (_ bv63 6) (sc_t 2))) (f_MLOAD x_0 x_1 w_1 x_MLOAD_0 ?x11500))))
 (let (($x6104 (not (= ((_ extract 6 6) (bvadd (_ bv1 7) (concat (_ bv0 1) ?x63))) (_ bv0 1)))))
 (let (($x8377 (exc_halt_t 1)))
 (let (($x4515 (forall ((w (_ BitVec 256)) )(let ((?x2174 (storage_t x_0 x_1 w_1 x_MLOAD_0 0 w)))
 (let ((?x5911 (storage_t x_0 x_1 w_1 x_MLOAD_0 1 w)))
 (= ?x5911 ?x2174))))
 ))
 (let (($x10814 (forall ((n (_ BitVec 6)) )(let ((?x4845 (stack_t x_0 x_1 w_1 x_MLOAD_0 0 n)))
 (let ((?x10661 (stack_t x_0 x_1 w_1 x_MLOAD_0 1 n)))
 (or (bvsle (bvadd (_ bv62 6) (sc_t 0)) n) (= ?x10661 ?x4845)))))
 ))
 (let (($x5902 (= ?x7154 (bvadd (_ bv1 6) ?x63))))
 (let (($x8675 (= (stack_t x_0 x_1 w_1 x_MLOAD_0 1 (bvadd (_ bv63 6) ?x63)) (stack_t x_0 x_1 w_1 x_MLOAD_0 0 (bvadd (_ bv63 6) ?x63)))))
 (let ((?x4748 (bvadd (_ bv62 6) ?x63)))
 (let ((?x1438 (stack_t x_0 x_1 w_1 x_MLOAD_0 0 ?x4748)))
 (let (($x360 (= $x772 (or (exc_halt_s 5) (not (bvsle (_ bv0 6) (bvadd (_ bv61 6) (sc_s 5))))))))
 (let (($x6268 (forall ((w (_ BitVec 256)) )(let ((?x4969 (storage_s x_0 x_1 w_1 x_MLOAD_0 5 w)))
 (let ((?x4496 (storage_s x_0 x_1 w_1 x_MLOAD_0 6 w)))
 (= ?x4496 ?x4969))))
 ))
 (let (($x2999 (forall ((n (_ BitVec 6)) )(let ((?x3116 (stack_s x_0 x_1 w_1 x_MLOAD_0 5 n)))
 (let ((?x9655 (stack_s x_0 x_1 w_1 x_MLOAD_0 6 n)))
 (or (= ?x9655 ?x3116) (bvsle (bvadd (_ bv61 6) (sc_s 5)) n)))))
 ))
 (let ((?x4319 (sc_s 5)))
 (let (($x1043 (= ?x926 ?x4319)))
 (let (($x8994 (= (used_gas_s x_0 x_1 w_1 x_MLOAD_0 6) (+ 3 (used_gas_s x_0 x_1 w_1 x_MLOAD_0 5)))))
 (let ((?x471 (bvadd (_ bv62 6) ?x4319)))
 (let ((?x2637 (stack_s x_0 x_1 w_1 x_MLOAD_0 5 ?x471)))
 (let ((?x1060 (bvadd (_ bv63 6) ?x4319)))
 (let ((?x3010 (stack_s x_0 x_1 w_1 x_MLOAD_0 5 ?x1060)))
 (let ((?x9806 (bvadd (_ bv61 6) ?x4319)))
 (let ((?x6936 (stack_s x_0 x_1 w_1 x_MLOAD_0 5 ?x9806)))
 (let (($x11317 (exc_halt_s 5)))
 (let (($x3355 (= $x11317 (or (exc_halt_s 4) (not (bvsle (_ bv0 6) (bvadd (_ bv60 6) (sc_s 4))))))))
 (let (($x6240 (forall ((w (_ BitVec 256)) )(let ((?x624 (storage_s x_0 x_1 w_1 x_MLOAD_0 4 w)))
 (let ((?x4969 (storage_s x_0 x_1 w_1 x_MLOAD_0 5 w)))
 (= ?x4969 ?x624))))
 ))
 (let (($x1867 (forall ((n (_ BitVec 6)) )(let ((?x422 (stack_s x_0 x_1 w_1 x_MLOAD_0 4 n)))
 (let ((?x3116 (stack_s x_0 x_1 w_1 x_MLOAD_0 5 n)))
 (or (= ?x3116 ?x422) (bvsle (bvadd (_ bv60 6) (sc_s 4)) n)))))
 ))
 (let ((?x2419 (used_gas_s x_0 x_1 w_1 x_MLOAD_0 5)))
 (let (($x8937 (= ?x2637 (stack_s x_0 x_1 w_1 x_MLOAD_0 4 (bvadd (_ bv62 6) (sc_s 4))))))
 (let (($x3175 (= ?x6936 (stack_s x_0 x_1 w_1 x_MLOAD_0 4 (bvadd (_ bv61 6) (sc_s 4))))))
 (let (($x9163 (= (stack_s x_0 x_1 w_1 x_MLOAD_0 5 (bvadd (_ bv60 6) ?x4319)) (stack_s x_0 x_1 w_1 x_MLOAD_0 4 (bvadd (_ bv63 6) (sc_s 4))))))
 (let (($x6704 (= ?x3010 (stack_s x_0 x_1 w_1 x_MLOAD_0 4 (bvadd (_ bv60 6) (sc_s 4))))))
 (let (($x292 (exc_halt_s 3)))
 (let (($x9861 (or $x292 (not (= ((_ extract 6 6) (bvadd (_ bv1 7) (concat (_ bv0 1) (sc_s 3)))) (_ bv0 1))))))
 (let (($x7172 (exc_halt_s 4)))
 (let (($x4667 (forall ((w (_ BitVec 256)) )(let ((?x4325 (storage_s x_0 x_1 w_1 x_MLOAD_0 3 w)))
 (let ((?x624 (storage_s x_0 x_1 w_1 x_MLOAD_0 4 w)))
 (= ?x624 ?x4325))))
 ))
 (let (($x9710 (forall ((n (_ BitVec 6)) )(let ((?x3857 (stack_s x_0 x_1 w_1 x_MLOAD_0 3 n)))
 (let ((?x422 (stack_s x_0 x_1 w_1 x_MLOAD_0 4 n)))
 (or (bvsle (sc_s 3) n) (= ?x422 ?x3857)))))
 ))
 (let ((?x9089 (used_gas_s x_0 x_1 w_1 x_MLOAD_0 4)))
 (let (($x1646 (= $x292 (or (exc_halt_s 2) (not (bvsle (_ bv0 6) (bvadd (_ bv63 6) (sc_s 2))))))))
 (let (($x2266 (forall ((w (_ BitVec 256)) )(let ((?x7984 (storage_s x_0 x_1 w_1 x_MLOAD_0 2 w)))
 (let ((?x4325 (storage_s x_0 x_1 w_1 x_MLOAD_0 3 w)))
 (= ?x4325 ?x7984))))
 ))
 (let (($x5821 (forall ((n (_ BitVec 6)) )(let ((?x5662 (stack_s x_0 x_1 w_1 x_MLOAD_0 2 n)))
 (let ((?x3857 (stack_s x_0 x_1 w_1 x_MLOAD_0 3 n)))
 (or (bvsle (bvadd (_ bv63 6) (sc_s 2)) n) (= ?x3857 ?x5662)))))
 ))
 (let ((?x739 (used_gas_s x_0 x_1 w_1 x_MLOAD_0 3)))
 (let ((?x218 (sc_s 2)))
 (let ((?x5955 (bvadd (_ bv63 6) ?x218)))
 (let ((?x6875 (stack_s x_0 x_1 w_1 x_MLOAD_0 2 ?x5955)))
 (let (($x4033 (= (stack_s x_0 x_1 w_1 x_MLOAD_0 3 (bvadd (_ bv63 6) (sc_s 3))) (f_MLOAD x_0 x_1 w_1 x_MLOAD_0 ?x6875))))
 (let (($x189 (exc_halt_s 1)))
 (let (($x11261 (or $x189 (not (= ((_ extract 6 6) (bvadd (_ bv1 7) (concat (_ bv0 1) (sc_s 1)))) (_ bv0 1))) (not (bvsle (_ bv0 6) (bvadd (_ bv63 6) (sc_s 1)))))))
 (let (($x247 (exc_halt_s 2)))
 (let (($x3098 (forall ((w (_ BitVec 256)) )(let ((?x7218 (storage_s x_0 x_1 w_1 x_MLOAD_0 1 w)))
 (let ((?x7984 (storage_s x_0 x_1 w_1 x_MLOAD_0 2 w)))
 (= ?x7984 ?x7218))))
 ))
 (let (($x8743 (forall ((n (_ BitVec 6)) )(let ((?x8863 (stack_s x_0 x_1 w_1 x_MLOAD_0 1 n)))
 (let ((?x5662 (stack_s x_0 x_1 w_1 x_MLOAD_0 2 n)))
 (or (= ?x5662 ?x8863) (bvsle (bvadd (_ bv63 6) (sc_s 1)) n)))))
 ))
 (let ((?x140 (used_gas_s x_0 x_1 w_1 x_MLOAD_0 2)))
 (let ((?x154 (sc_s 1)))
 (let ((?x2974 (bvadd (_ bv63 6) ?x154)))
 (let ((?x2293 (stack_s x_0 x_1 w_1 x_MLOAD_0 1 ?x2974)))
 (let (($x11622 (forall ((w (_ BitVec 256)) )(let ((?x9305 (storage_s x_0 x_1 w_1 x_MLOAD_0 0 w)))
 (let ((?x7218 (storage_s x_0 x_1 w_1 x_MLOAD_0 1 w)))
 (= ?x7218 ?x9305))))
 ))
 (let (($x6528 (forall ((n (_ BitVec 6)) )(let ((?x10539 (stack_s x_0 x_1 w_1 x_MLOAD_0 0 n)))
 (let ((?x8863 (stack_s x_0 x_1 w_1 x_MLOAD_0 1 n)))
 (or (bvsle (bvadd (_ bv62 6) (sc_s 0)) n) (= ?x8863 ?x10539)))))
 ))
 (let (($x8534 (= ?x154 ?x72)))
 (let (($x10344 (= (stack_s x_0 x_1 w_1 x_MLOAD_0 1 (bvadd (_ bv62 6) ?x154)) (stack_s x_0 x_1 w_1 x_MLOAD_0 0 (bvadd (_ bv63 6) ?x72)))))
 (let (($x531 (forall ((w0 (_ BitVec 256)) )(let (($x6719 (= (stack_s x_0 x_1 w_1 x_MLOAD_0 2 (bvadd (_ bv63 6) (sc_s 2))) w0)))
 (let ((?x3159 (f_MLOAD x_0 x_1 w_1 x_MLOAD_0 w0)))
 (= ?x3159 (ite $x6719 x_MLOAD_0 (_ bv0 256))))))
 ))
 (let (($x10203 (forall ((w (_ BitVec 256)) )(let ((?x9305 (storage_s x_0 x_1 w_1 x_MLOAD_0 0 w)))
 (= ?x9305 (_ bv0 256))))
 ))
 (let (($x5545 (= ?x8835 0)))
 (let (($x4768 (not $x57)))
 (let (($x98 (= (stack_s x_0 x_1 w_1 x_MLOAD_0 0 (_ bv1 6)) x_1)))
 (let (($x6225 (= (stack_s x_0 x_1 w_1 x_MLOAD_0 0 (_ bv0 6)) x_0)))
 (let (($x11128 (= ?x72 (_ bv2 6))))
 (and $x11128 $x6225 $x98 $x4768 $x5545 $x10203 $x531 (= ?x2293 (stack_s x_0 x_1 w_1 x_MLOAD_0 0 (bvadd (_ bv62 6) ?x72))) $x10344 (= (used_gas_s x_0 x_1 w_1 x_MLOAD_0 1) (+ 3 ?x8835)) $x8534 $x6528 $x11622 (= $x189 (or $x57 (not (bvsle (_ bv0 6) (bvadd (_ bv62 6) ?x72))))) (= ?x6875 ?x2293) (= (stack_s x_0 x_1 w_1 x_MLOAD_0 2 ?x2974) ?x2293) (= ?x140 (+ 3 (used_gas_s x_0 x_1 w_1 x_MLOAD_0 1))) (= ?x218 (bvadd (_ bv1 6) ?x154)) $x8743 $x3098 (= $x247 $x11261) $x4033 (= ?x739 (+ 3 ?x140)) (= (sc_s 3) ?x218) $x5821 $x2266 $x1646 (= (stack_s x_0 x_1 w_1 x_MLOAD_0 4 (sc_s 3)) w_1) (= ?x9089 (+ 3 ?x739)) (= (sc_s 4) (bvadd (_ bv1 6) (sc_s 3))) $x9710 $x4667 (= $x7172 $x9861) $x6704 $x9163 $x3175 $x8937 (= ?x2419 (+ 3 ?x9089)) (= ?x4319 (sc_s 4)) $x1867 $x6240 $x3355 (= (stack_s x_0 x_1 w_1 x_MLOAD_0 6 (bvadd (_ bv63 6) ?x926)) ?x6936) (= (stack_s x_0 x_1 w_1 x_MLOAD_0 6 (bvadd (_ bv61 6) ?x926)) ?x3010) (= (stack_s x_0 x_1 w_1 x_MLOAD_0 6 (bvadd (_ bv62 6) ?x926)) ?x2637) $x8994 $x1043 $x2999 $x6268 $x360 (= ?x11500 ?x1438) (= (stack_t x_0 x_1 w_1 x_MLOAD_0 1 ?x4748) ?x1438) $x8675 (= (used_gas_t x_0 x_1 w_1 x_MLOAD_0 1) (+ 3 ?x5573)) $x5902 $x10814 $x4515 (= $x8377 (or $x56 $x6104 (not (bvsle (_ bv0 6) ?x4748)))) $x11667 (= ?x8038 (+ 3 (used_gas_t x_0 x_1 w_1 x_MLOAD_0 1))) (= (sc_t 2) ?x7154) $x9783 $x5901 $x11191 (= (stack_t x_0 x_1 w_1 x_MLOAD_0 3 (sc_t 2)) w_1) (= ?x9958 (+ 3 ?x8038)) (= ?x11304 (bvadd (_ bv1 6) (sc_t 2))) $x2182 $x7568 (= $x3614 $x6726) $x9087 $x6606 $x2383 $x10209 $x9744 $x8262 $x8967 $x4432 $x884 $x73 $x1309 $x58 $x6709 $x7621 (not (and $x7899 $x7455 $x4404 $x11773))))))))))))))))))))))))))))))))))))))))))))))))))))))))))))))))))))))))))))))))))))))))))))))))))))))))))))))
 )
(check-sat)
(get-proof)
